50	100	100	100
16	7	26
30	9	26
26	13	10
4	33	28
12	10	23
10	17	32
23	4	9
6	21	14
31	25	11
34	17	18
12	25	9
15	22	12
23	8	18
25	13	4
9	5	8
6	34	33
18	12	31
33	2	6
18	10	16
22	13	17
5	28	29
8	11	18
5	5	5
28	17	6
22	33	32
25	12	29
15	10	23
17	5	6
19	5	14
6	10	1
4	14	14
13	12	29
27	21	8
27	4	30
19	15	25
27	24	16
27	32	4
19	32	13
11	5	31
7	4	30
33	17	6
7	7	28
33	11	32
12	14	33
8	4	13
11	18	8
26	20	31
26	14	20
4	4	16
21	18	9
